problems/csplib-prob015/SchursLemma-models/noch/O2/lingeling/model_1_3-4-15-solution000001.eprime-solution
language ESSENCE' 1.0

letting boxes_PartitionAsSet_ExplicitR5_ExplicitVarSizeWithMarker_Marker be [2, 2, 5, 6; int(1..4)]
letting boxes_PartitionAsSet_ExplicitR5_ExplicitVarSizeWithMarker_Values be
        [[1, 5, 1, 1, 1, 1, 1, 1, 1, 1, 1, 1, 1, 1, 1; int(1..15)],
         [6, 11, 1, 1, 1, 1, 1, 1, 1, 1, 1, 1, 1, 1, 1; int(1..15)],
         [7, 8, 12, 13, 14, 1, 1, 1, 1, 1, 1, 1, 1, 1, 1; int(1..15)],
         [2, 3, 4, 9, 10, 15, 1, 1, 1, 1, 1, 1, 1, 1, 1; int(1..15)]; int(1..4)]
